T = 150;
V = 20;
Q = 15;
L = 5;
C = 2;
P = 20;
time = [|  0, 32, 17,  0, 33, 17, 32, 17,  0, 26, 26,  0,  0, 33, 17,  0,  0,  0, 26, 32, 17, 26, 26, 26,  0, 26, 17, 26, 26, 33, 17, 17, 17, 26, 32, 26, 17, 17, 33, 33, 20, 20, 20, 20, 20, 20, 20, 20, 20, 20, 20, 20, 20, 20, 20, 20, 20, 20, 20, 20, 20, 20, 20, 20, 20, 20, 20, 20, 20, 20, 20, 20, 20, 20, 20, 20, 20, 20, 20, 20,
        | 32,  0, 20, 32, 18, 20,  0, 20, 32, 18, 18, 32, 32, 18, 20, 32, 32, 32, 18,  0, 20, 18, 18, 18, 32, 18, 20, 18, 18, 18, 20, 20, 20, 18,  0, 18, 20, 20, 18, 18, 14, 14, 14, 14, 14, 14, 14, 14, 14, 14, 14, 14, 14, 14, 14, 14, 14, 14, 14, 14, 14, 14, 14, 14, 14, 14, 14, 14, 14, 14, 14, 14, 14, 14, 14, 14, 14, 14, 14, 14,
        | 17, 20,  0, 17, 30,  0, 20,  0, 17,  9,  9, 17, 17, 30,  0, 17, 17, 17,  9, 20,  0,  9,  9,  9, 17,  9,  0,  9,  9, 30,  0,  0,  0,  9, 20,  9,  0,  0, 30, 30,  8,  8,  8,  8,  8,  8,  8,  8,  8,  8,  8,  8,  8,  8,  8,  8,  8,  8,  8,  8,  8,  8,  8,  8,  8,  8,  8,  8,  8,  8,  8,  8,  8,  8,  8,  8,  8,  8,  8,  8,
        |  0, 32, 17,  0, 33, 17, 32, 17,  0, 26, 26,  0,  0, 33, 17,  0,  0,  0, 26, 32, 17, 26, 26, 26,  0, 26, 17, 26, 26, 33, 17, 17, 17, 26, 32, 26, 17, 17, 33, 33, 20, 20, 20, 20, 20, 20, 20, 20, 20, 20, 20, 20, 20, 20, 20, 20, 20, 20, 20, 20, 20, 20, 20, 20, 20, 20, 20, 20, 20, 20, 20, 20, 20, 20, 20, 20, 20, 20, 20, 20,
        | 33, 18, 30, 33,  0, 30, 18, 30, 33, 32, 32, 33, 33,  0, 30, 33, 33, 33, 32, 18, 30, 32, 32, 32, 33, 32, 30, 32, 32,  0, 30, 30, 30, 32, 18, 32, 30, 30,  0,  0, 23, 23, 23, 23, 23, 23, 23, 23, 23, 23, 23, 23, 23, 23, 23, 23, 23, 23, 23, 23, 23, 23, 23, 23, 23, 23, 23, 23, 23, 23, 23, 23, 23, 23, 23, 23, 23, 23, 23, 23,
        | 17, 20,  0, 17, 30,  0, 20,  0, 17,  9,  9, 17, 17, 30,  0, 17, 17, 17,  9, 20,  0,  9,  9,  9, 17,  9,  0,  9,  9, 30,  0,  0,  0,  9, 20,  9,  0,  0, 30, 30,  8,  8,  8,  8,  8,  8,  8,  8,  8,  8,  8,  8,  8,  8,  8,  8,  8,  8,  8,  8,  8,  8,  8,  8,  8,  8,  8,  8,  8,  8,  8,  8,  8,  8,  8,  8,  8,  8,  8,  8,
        | 32,  0, 20, 32, 18, 20,  0, 20, 32, 18, 18, 32, 32, 18, 20, 32, 32, 32, 18,  0, 20, 18, 18, 18, 32, 18, 20, 18, 18, 18, 20, 20, 20, 18,  0, 18, 20, 20, 18, 18, 14, 14, 14, 14, 14, 14, 14, 14, 14, 14, 14, 14, 14, 14, 14, 14, 14, 14, 14, 14, 14, 14, 14, 14, 14, 14, 14, 14, 14, 14, 14, 14, 14, 14, 14, 14, 14, 14, 14, 14,
        | 17, 20,  0, 17, 30,  0, 20,  0, 17,  9,  9, 17, 17, 30,  0, 17, 17, 17,  9, 20,  0,  9,  9,  9, 17,  9,  0,  9,  9, 30,  0,  0,  0,  9, 20,  9,  0,  0, 30, 30,  8,  8,  8,  8,  8,  8,  8,  8,  8,  8,  8,  8,  8,  8,  8,  8,  8,  8,  8,  8,  8,  8,  8,  8,  8,  8,  8,  8,  8,  8,  8,  8,  8,  8,  8,  8,  8,  8,  8,  8,
        |  0, 32, 17,  0, 33, 17, 32, 17,  0, 26, 26,  0,  0, 33, 17,  0,  0,  0, 26, 32, 17, 26, 26, 26,  0, 26, 17, 26, 26, 33, 17, 17, 17, 26, 32, 26, 17, 17, 33, 33, 20, 20, 20, 20, 20, 20, 20, 20, 20, 20, 20, 20, 20, 20, 20, 20, 20, 20, 20, 20, 20, 20, 20, 20, 20, 20, 20, 20, 20, 20, 20, 20, 20, 20, 20, 20, 20, 20, 20, 20,
        | 26, 18,  9, 26, 32,  9, 18,  9, 26,  0,  0, 26, 26, 32,  9, 26, 26, 26,  0, 18,  9,  0,  0,  0, 26,  0,  9,  0,  0, 32,  9,  9,  9,  0, 18,  0,  9,  9, 32, 32, 11, 11, 11, 11, 11, 11, 11, 11, 11, 11, 11, 11, 11, 11, 11, 11, 11, 11, 11, 11, 11, 11, 11, 11, 11, 11, 11, 11, 11, 11, 11, 11, 11, 11, 11, 11, 11, 11, 11, 11,
        | 26, 18,  9, 26, 32,  9, 18,  9, 26,  0,  0, 26, 26, 32,  9, 26, 26, 26,  0, 18,  9,  0,  0,  0, 26,  0,  9,  0,  0, 32,  9,  9,  9,  0, 18,  0,  9,  9, 32, 32, 11, 11, 11, 11, 11, 11, 11, 11, 11, 11, 11, 11, 11, 11, 11, 11, 11, 11, 11, 11, 11, 11, 11, 11, 11, 11, 11, 11, 11, 11, 11, 11, 11, 11, 11, 11, 11, 11, 11, 11,
        |  0, 32, 17,  0, 33, 17, 32, 17,  0, 26, 26,  0,  0, 33, 17,  0,  0,  0, 26, 32, 17, 26, 26, 26,  0, 26, 17, 26, 26, 33, 17, 17, 17, 26, 32, 26, 17, 17, 33, 33, 20, 20, 20, 20, 20, 20, 20, 20, 20, 20, 20, 20, 20, 20, 20, 20, 20, 20, 20, 20, 20, 20, 20, 20, 20, 20, 20, 20, 20, 20, 20, 20, 20, 20, 20, 20, 20, 20, 20, 20,
        |  0, 32, 17,  0, 33, 17, 32, 17,  0, 26, 26,  0,  0, 33, 17,  0,  0,  0, 26, 32, 17, 26, 26, 26,  0, 26, 17, 26, 26, 33, 17, 17, 17, 26, 32, 26, 17, 17, 33, 33, 20, 20, 20, 20, 20, 20, 20, 20, 20, 20, 20, 20, 20, 20, 20, 20, 20, 20, 20, 20, 20, 20, 20, 20, 20, 20, 20, 20, 20, 20, 20, 20, 20, 20, 20, 20, 20, 20, 20, 20,
        | 33, 18, 30, 33,  0, 30, 18, 30, 33, 32, 32, 33, 33,  0, 30, 33, 33, 33, 32, 18, 30, 32, 32, 32, 33, 32, 30, 32, 32,  0, 30, 30, 30, 32, 18, 32, 30, 30,  0,  0, 23, 23, 23, 23, 23, 23, 23, 23, 23, 23, 23, 23, 23, 23, 23, 23, 23, 23, 23, 23, 23, 23, 23, 23, 23, 23, 23, 23, 23, 23, 23, 23, 23, 23, 23, 23, 23, 23, 23, 23,
        | 17, 20,  0, 17, 30,  0, 20,  0, 17,  9,  9, 17, 17, 30,  0, 17, 17, 17,  9, 20,  0,  9,  9,  9, 17,  9,  0,  9,  9, 30,  0,  0,  0,  9, 20,  9,  0,  0, 30, 30,  8,  8,  8,  8,  8,  8,  8,  8,  8,  8,  8,  8,  8,  8,  8,  8,  8,  8,  8,  8,  8,  8,  8,  8,  8,  8,  8,  8,  8,  8,  8,  8,  8,  8,  8,  8,  8,  8,  8,  8,
        |  0, 32, 17,  0, 33, 17, 32, 17,  0, 26, 26,  0,  0, 33, 17,  0,  0,  0, 26, 32, 17, 26, 26, 26,  0, 26, 17, 26, 26, 33, 17, 17, 17, 26, 32, 26, 17, 17, 33, 33, 20, 20, 20, 20, 20, 20, 20, 20, 20, 20, 20, 20, 20, 20, 20, 20, 20, 20, 20, 20, 20, 20, 20, 20, 20, 20, 20, 20, 20, 20, 20, 20, 20, 20, 20, 20, 20, 20, 20, 20,
        |  0, 32, 17,  0, 33, 17, 32, 17,  0, 26, 26,  0,  0, 33, 17,  0,  0,  0, 26, 32, 17, 26, 26, 26,  0, 26, 17, 26, 26, 33, 17, 17, 17, 26, 32, 26, 17, 17, 33, 33, 20, 20, 20, 20, 20, 20, 20, 20, 20, 20, 20, 20, 20, 20, 20, 20, 20, 20, 20, 20, 20, 20, 20, 20, 20, 20, 20, 20, 20, 20, 20, 20, 20, 20, 20, 20, 20, 20, 20, 20,
        |  0, 32, 17,  0, 33, 17, 32, 17,  0, 26, 26,  0,  0, 33, 17,  0,  0,  0, 26, 32, 17, 26, 26, 26,  0, 26, 17, 26, 26, 33, 17, 17, 17, 26, 32, 26, 17, 17, 33, 33, 20, 20, 20, 20, 20, 20, 20, 20, 20, 20, 20, 20, 20, 20, 20, 20, 20, 20, 20, 20, 20, 20, 20, 20, 20, 20, 20, 20, 20, 20, 20, 20, 20, 20, 20, 20, 20, 20, 20, 20,
        | 26, 18,  9, 26, 32,  9, 18,  9, 26,  0,  0, 26, 26, 32,  9, 26, 26, 26,  0, 18,  9,  0,  0,  0, 26,  0,  9,  0,  0, 32,  9,  9,  9,  0, 18,  0,  9,  9, 32, 32, 11, 11, 11, 11, 11, 11, 11, 11, 11, 11, 11, 11, 11, 11, 11, 11, 11, 11, 11, 11, 11, 11, 11, 11, 11, 11, 11, 11, 11, 11, 11, 11, 11, 11, 11, 11, 11, 11, 11, 11,
        | 32,  0, 20, 32, 18, 20,  0, 20, 32, 18, 18, 32, 32, 18, 20, 32, 32, 32, 18,  0, 20, 18, 18, 18, 32, 18, 20, 18, 18, 18, 20, 20, 20, 18,  0, 18, 20, 20, 18, 18, 14, 14, 14, 14, 14, 14, 14, 14, 14, 14, 14, 14, 14, 14, 14, 14, 14, 14, 14, 14, 14, 14, 14, 14, 14, 14, 14, 14, 14, 14, 14, 14, 14, 14, 14, 14, 14, 14, 14, 14,
        | 17, 20,  0, 17, 30,  0, 20,  0, 17,  9,  9, 17, 17, 30,  0, 17, 17, 17,  9, 20,  0,  9,  9,  9, 17,  9,  0,  9,  9, 30,  0,  0,  0,  9, 20,  9,  0,  0, 30, 30,  8,  8,  8,  8,  8,  8,  8,  8,  8,  8,  8,  8,  8,  8,  8,  8,  8,  8,  8,  8,  8,  8,  8,  8,  8,  8,  8,  8,  8,  8,  8,  8,  8,  8,  8,  8,  8,  8,  8,  8,
        | 26, 18,  9, 26, 32,  9, 18,  9, 26,  0,  0, 26, 26, 32,  9, 26, 26, 26,  0, 18,  9,  0,  0,  0, 26,  0,  9,  0,  0, 32,  9,  9,  9,  0, 18,  0,  9,  9, 32, 32, 11, 11, 11, 11, 11, 11, 11, 11, 11, 11, 11, 11, 11, 11, 11, 11, 11, 11, 11, 11, 11, 11, 11, 11, 11, 11, 11, 11, 11, 11, 11, 11, 11, 11, 11, 11, 11, 11, 11, 11,
        | 26, 18,  9, 26, 32,  9, 18,  9, 26,  0,  0, 26, 26, 32,  9, 26, 26, 26,  0, 18,  9,  0,  0,  0, 26,  0,  9,  0,  0, 32,  9,  9,  9,  0, 18,  0,  9,  9, 32, 32, 11, 11, 11, 11, 11, 11, 11, 11, 11, 11, 11, 11, 11, 11, 11, 11, 11, 11, 11, 11, 11, 11, 11, 11, 11, 11, 11, 11, 11, 11, 11, 11, 11, 11, 11, 11, 11, 11, 11, 11,
        | 26, 18,  9, 26, 32,  9, 18,  9, 26,  0,  0, 26, 26, 32,  9, 26, 26, 26,  0, 18,  9,  0,  0,  0, 26,  0,  9,  0,  0, 32,  9,  9,  9,  0, 18,  0,  9,  9, 32, 32, 11, 11, 11, 11, 11, 11, 11, 11, 11, 11, 11, 11, 11, 11, 11, 11, 11, 11, 11, 11, 11, 11, 11, 11, 11, 11, 11, 11, 11, 11, 11, 11, 11, 11, 11, 11, 11, 11, 11, 11,
        |  0, 32, 17,  0, 33, 17, 32, 17,  0, 26, 26,  0,  0, 33, 17,  0,  0,  0, 26, 32, 17, 26, 26, 26,  0, 26, 17, 26, 26, 33, 17, 17, 17, 26, 32, 26, 17, 17, 33, 33, 20, 20, 20, 20, 20, 20, 20, 20, 20, 20, 20, 20, 20, 20, 20, 20, 20, 20, 20, 20, 20, 20, 20, 20, 20, 20, 20, 20, 20, 20, 20, 20, 20, 20, 20, 20, 20, 20, 20, 20,
        | 26, 18,  9, 26, 32,  9, 18,  9, 26,  0,  0, 26, 26, 32,  9, 26, 26, 26,  0, 18,  9,  0,  0,  0, 26,  0,  9,  0,  0, 32,  9,  9,  9,  0, 18,  0,  9,  9, 32, 32, 11, 11, 11, 11, 11, 11, 11, 11, 11, 11, 11, 11, 11, 11, 11, 11, 11, 11, 11, 11, 11, 11, 11, 11, 11, 11, 11, 11, 11, 11, 11, 11, 11, 11, 11, 11, 11, 11, 11, 11,
        | 17, 20,  0, 17, 30,  0, 20,  0, 17,  9,  9, 17, 17, 30,  0, 17, 17, 17,  9, 20,  0,  9,  9,  9, 17,  9,  0,  9,  9, 30,  0,  0,  0,  9, 20,  9,  0,  0, 30, 30,  8,  8,  8,  8,  8,  8,  8,  8,  8,  8,  8,  8,  8,  8,  8,  8,  8,  8,  8,  8,  8,  8,  8,  8,  8,  8,  8,  8,  8,  8,  8,  8,  8,  8,  8,  8,  8,  8,  8,  8,
        | 26, 18,  9, 26, 32,  9, 18,  9, 26,  0,  0, 26, 26, 32,  9, 26, 26, 26,  0, 18,  9,  0,  0,  0, 26,  0,  9,  0,  0, 32,  9,  9,  9,  0, 18,  0,  9,  9, 32, 32, 11, 11, 11, 11, 11, 11, 11, 11, 11, 11, 11, 11, 11, 11, 11, 11, 11, 11, 11, 11, 11, 11, 11, 11, 11, 11, 11, 11, 11, 11, 11, 11, 11, 11, 11, 11, 11, 11, 11, 11,
        | 26, 18,  9, 26, 32,  9, 18,  9, 26,  0,  0, 26, 26, 32,  9, 26, 26, 26,  0, 18,  9,  0,  0,  0, 26,  0,  9,  0,  0, 32,  9,  9,  9,  0, 18,  0,  9,  9, 32, 32, 11, 11, 11, 11, 11, 11, 11, 11, 11, 11, 11, 11, 11, 11, 11, 11, 11, 11, 11, 11, 11, 11, 11, 11, 11, 11, 11, 11, 11, 11, 11, 11, 11, 11, 11, 11, 11, 11, 11, 11,
        | 33, 18, 30, 33,  0, 30, 18, 30, 33, 32, 32, 33, 33,  0, 30, 33, 33, 33, 32, 18, 30, 32, 32, 32, 33, 32, 30, 32, 32,  0, 30, 30, 30, 32, 18, 32, 30, 30,  0,  0, 23, 23, 23, 23, 23, 23, 23, 23, 23, 23, 23, 23, 23, 23, 23, 23, 23, 23, 23, 23, 23, 23, 23, 23, 23, 23, 23, 23, 23, 23, 23, 23, 23, 23, 23, 23, 23, 23, 23, 23,
        | 17, 20,  0, 17, 30,  0, 20,  0, 17,  9,  9, 17, 17, 30,  0, 17, 17, 17,  9, 20,  0,  9,  9,  9, 17,  9,  0,  9,  9, 30,  0,  0,  0,  9, 20,  9,  0,  0, 30, 30,  8,  8,  8,  8,  8,  8,  8,  8,  8,  8,  8,  8,  8,  8,  8,  8,  8,  8,  8,  8,  8,  8,  8,  8,  8,  8,  8,  8,  8,  8,  8,  8,  8,  8,  8,  8,  8,  8,  8,  8,
        | 17, 20,  0, 17, 30,  0, 20,  0, 17,  9,  9, 17, 17, 30,  0, 17, 17, 17,  9, 20,  0,  9,  9,  9, 17,  9,  0,  9,  9, 30,  0,  0,  0,  9, 20,  9,  0,  0, 30, 30,  8,  8,  8,  8,  8,  8,  8,  8,  8,  8,  8,  8,  8,  8,  8,  8,  8,  8,  8,  8,  8,  8,  8,  8,  8,  8,  8,  8,  8,  8,  8,  8,  8,  8,  8,  8,  8,  8,  8,  8,
        | 17, 20,  0, 17, 30,  0, 20,  0, 17,  9,  9, 17, 17, 30,  0, 17, 17, 17,  9, 20,  0,  9,  9,  9, 17,  9,  0,  9,  9, 30,  0,  0,  0,  9, 20,  9,  0,  0, 30, 30,  8,  8,  8,  8,  8,  8,  8,  8,  8,  8,  8,  8,  8,  8,  8,  8,  8,  8,  8,  8,  8,  8,  8,  8,  8,  8,  8,  8,  8,  8,  8,  8,  8,  8,  8,  8,  8,  8,  8,  8,
        | 26, 18,  9, 26, 32,  9, 18,  9, 26,  0,  0, 26, 26, 32,  9, 26, 26, 26,  0, 18,  9,  0,  0,  0, 26,  0,  9,  0,  0, 32,  9,  9,  9,  0, 18,  0,  9,  9, 32, 32, 11, 11, 11, 11, 11, 11, 11, 11, 11, 11, 11, 11, 11, 11, 11, 11, 11, 11, 11, 11, 11, 11, 11, 11, 11, 11, 11, 11, 11, 11, 11, 11, 11, 11, 11, 11, 11, 11, 11, 11,
        | 32,  0, 20, 32, 18, 20,  0, 20, 32, 18, 18, 32, 32, 18, 20, 32, 32, 32, 18,  0, 20, 18, 18, 18, 32, 18, 20, 18, 18, 18, 20, 20, 20, 18,  0, 18, 20, 20, 18, 18, 14, 14, 14, 14, 14, 14, 14, 14, 14, 14, 14, 14, 14, 14, 14, 14, 14, 14, 14, 14, 14, 14, 14, 14, 14, 14, 14, 14, 14, 14, 14, 14, 14, 14, 14, 14, 14, 14, 14, 14,
        | 26, 18,  9, 26, 32,  9, 18,  9, 26,  0,  0, 26, 26, 32,  9, 26, 26, 26,  0, 18,  9,  0,  0,  0, 26,  0,  9,  0,  0, 32,  9,  9,  9,  0, 18,  0,  9,  9, 32, 32, 11, 11, 11, 11, 11, 11, 11, 11, 11, 11, 11, 11, 11, 11, 11, 11, 11, 11, 11, 11, 11, 11, 11, 11, 11, 11, 11, 11, 11, 11, 11, 11, 11, 11, 11, 11, 11, 11, 11, 11,
        | 17, 20,  0, 17, 30,  0, 20,  0, 17,  9,  9, 17, 17, 30,  0, 17, 17, 17,  9, 20,  0,  9,  9,  9, 17,  9,  0,  9,  9, 30,  0,  0,  0,  9, 20,  9,  0,  0, 30, 30,  8,  8,  8,  8,  8,  8,  8,  8,  8,  8,  8,  8,  8,  8,  8,  8,  8,  8,  8,  8,  8,  8,  8,  8,  8,  8,  8,  8,  8,  8,  8,  8,  8,  8,  8,  8,  8,  8,  8,  8,
        | 17, 20,  0, 17, 30,  0, 20,  0, 17,  9,  9, 17, 17, 30,  0, 17, 17, 17,  9, 20,  0,  9,  9,  9, 17,  9,  0,  9,  9, 30,  0,  0,  0,  9, 20,  9,  0,  0, 30, 30,  8,  8,  8,  8,  8,  8,  8,  8,  8,  8,  8,  8,  8,  8,  8,  8,  8,  8,  8,  8,  8,  8,  8,  8,  8,  8,  8,  8,  8,  8,  8,  8,  8,  8,  8,  8,  8,  8,  8,  8,
        | 33, 18, 30, 33,  0, 30, 18, 30, 33, 32, 32, 33, 33,  0, 30, 33, 33, 33, 32, 18, 30, 32, 32, 32, 33, 32, 30, 32, 32,  0, 30, 30, 30, 32, 18, 32, 30, 30,  0,  0, 23, 23, 23, 23, 23, 23, 23, 23, 23, 23, 23, 23, 23, 23, 23, 23, 23, 23, 23, 23, 23, 23, 23, 23, 23, 23, 23, 23, 23, 23, 23, 23, 23, 23, 23, 23, 23, 23, 23, 23,
        | 33, 18, 30, 33,  0, 30, 18, 30, 33, 32, 32, 33, 33,  0, 30, 33, 33, 33, 32, 18, 30, 32, 32, 32, 33, 32, 30, 32, 32,  0, 30, 30, 30, 32, 18, 32, 30, 30,  0,  0, 23, 23, 23, 23, 23, 23, 23, 23, 23, 23, 23, 23, 23, 23, 23, 23, 23, 23, 23, 23, 23, 23, 23, 23, 23, 23, 23, 23, 23, 23, 23, 23, 23, 23, 23, 23, 23, 23, 23, 23,
        | 20, 14,  8, 20, 23,  8, 14,  8, 20, 11, 11, 20, 20, 23,  8, 20, 20, 20, 11, 14,  8, 11, 11, 11, 20, 11,  8, 11, 11, 23,  8,  8,  8, 11, 14, 11,  8,  8, 23, 23,  0,  0,  0,  0,  0,  0,  0,  0,  0,  0,  0,  0,  0,  0,  0,  0,  0,  0,  0,  0,  0,  0,  0,  0,  0,  0,  0,  0,  0,  0,  0,  0,  0,  0,  0,  0,  0,  0,  0,  0,
        | 20, 14,  8, 20, 23,  8, 14,  8, 20, 11, 11, 20, 20, 23,  8, 20, 20, 20, 11, 14,  8, 11, 11, 11, 20, 11,  8, 11, 11, 23,  8,  8,  8, 11, 14, 11,  8,  8, 23, 23,  0,  0,  0,  0,  0,  0,  0,  0,  0,  0,  0,  0,  0,  0,  0,  0,  0,  0,  0,  0,  0,  0,  0,  0,  0,  0,  0,  0,  0,  0,  0,  0,  0,  0,  0,  0,  0,  0,  0,  0,
        | 20, 14,  8, 20, 23,  8, 14,  8, 20, 11, 11, 20, 20, 23,  8, 20, 20, 20, 11, 14,  8, 11, 11, 11, 20, 11,  8, 11, 11, 23,  8,  8,  8, 11, 14, 11,  8,  8, 23, 23,  0,  0,  0,  0,  0,  0,  0,  0,  0,  0,  0,  0,  0,  0,  0,  0,  0,  0,  0,  0,  0,  0,  0,  0,  0,  0,  0,  0,  0,  0,  0,  0,  0,  0,  0,  0,  0,  0,  0,  0,
        | 20, 14,  8, 20, 23,  8, 14,  8, 20, 11, 11, 20, 20, 23,  8, 20, 20, 20, 11, 14,  8, 11, 11, 11, 20, 11,  8, 11, 11, 23,  8,  8,  8, 11, 14, 11,  8,  8, 23, 23,  0,  0,  0,  0,  0,  0,  0,  0,  0,  0,  0,  0,  0,  0,  0,  0,  0,  0,  0,  0,  0,  0,  0,  0,  0,  0,  0,  0,  0,  0,  0,  0,  0,  0,  0,  0,  0,  0,  0,  0,
        | 20, 14,  8, 20, 23,  8, 14,  8, 20, 11, 11, 20, 20, 23,  8, 20, 20, 20, 11, 14,  8, 11, 11, 11, 20, 11,  8, 11, 11, 23,  8,  8,  8, 11, 14, 11,  8,  8, 23, 23,  0,  0,  0,  0,  0,  0,  0,  0,  0,  0,  0,  0,  0,  0,  0,  0,  0,  0,  0,  0,  0,  0,  0,  0,  0,  0,  0,  0,  0,  0,  0,  0,  0,  0,  0,  0,  0,  0,  0,  0,
        | 20, 14,  8, 20, 23,  8, 14,  8, 20, 11, 11, 20, 20, 23,  8, 20, 20, 20, 11, 14,  8, 11, 11, 11, 20, 11,  8, 11, 11, 23,  8,  8,  8, 11, 14, 11,  8,  8, 23, 23,  0,  0,  0,  0,  0,  0,  0,  0,  0,  0,  0,  0,  0,  0,  0,  0,  0,  0,  0,  0,  0,  0,  0,  0,  0,  0,  0,  0,  0,  0,  0,  0,  0,  0,  0,  0,  0,  0,  0,  0,
        | 20, 14,  8, 20, 23,  8, 14,  8, 20, 11, 11, 20, 20, 23,  8, 20, 20, 20, 11, 14,  8, 11, 11, 11, 20, 11,  8, 11, 11, 23,  8,  8,  8, 11, 14, 11,  8,  8, 23, 23,  0,  0,  0,  0,  0,  0,  0,  0,  0,  0,  0,  0,  0,  0,  0,  0,  0,  0,  0,  0,  0,  0,  0,  0,  0,  0,  0,  0,  0,  0,  0,  0,  0,  0,  0,  0,  0,  0,  0,  0,
        | 20, 14,  8, 20, 23,  8, 14,  8, 20, 11, 11, 20, 20, 23,  8, 20, 20, 20, 11, 14,  8, 11, 11, 11, 20, 11,  8, 11, 11, 23,  8,  8,  8, 11, 14, 11,  8,  8, 23, 23,  0,  0,  0,  0,  0,  0,  0,  0,  0,  0,  0,  0,  0,  0,  0,  0,  0,  0,  0,  0,  0,  0,  0,  0,  0,  0,  0,  0,  0,  0,  0,  0,  0,  0,  0,  0,  0,  0,  0,  0,
        | 20, 14,  8, 20, 23,  8, 14,  8, 20, 11, 11, 20, 20, 23,  8, 20, 20, 20, 11, 14,  8, 11, 11, 11, 20, 11,  8, 11, 11, 23,  8,  8,  8, 11, 14, 11,  8,  8, 23, 23,  0,  0,  0,  0,  0,  0,  0,  0,  0,  0,  0,  0,  0,  0,  0,  0,  0,  0,  0,  0,  0,  0,  0,  0,  0,  0,  0,  0,  0,  0,  0,  0,  0,  0,  0,  0,  0,  0,  0,  0,
        | 20, 14,  8, 20, 23,  8, 14,  8, 20, 11, 11, 20, 20, 23,  8, 20, 20, 20, 11, 14,  8, 11, 11, 11, 20, 11,  8, 11, 11, 23,  8,  8,  8, 11, 14, 11,  8,  8, 23, 23,  0,  0,  0,  0,  0,  0,  0,  0,  0,  0,  0,  0,  0,  0,  0,  0,  0,  0,  0,  0,  0,  0,  0,  0,  0,  0,  0,  0,  0,  0,  0,  0,  0,  0,  0,  0,  0,  0,  0,  0,
        | 20, 14,  8, 20, 23,  8, 14,  8, 20, 11, 11, 20, 20, 23,  8, 20, 20, 20, 11, 14,  8, 11, 11, 11, 20, 11,  8, 11, 11, 23,  8,  8,  8, 11, 14, 11,  8,  8, 23, 23,  0,  0,  0,  0,  0,  0,  0,  0,  0,  0,  0,  0,  0,  0,  0,  0,  0,  0,  0,  0,  0,  0,  0,  0,  0,  0,  0,  0,  0,  0,  0,  0,  0,  0,  0,  0,  0,  0,  0,  0,
        | 20, 14,  8, 20, 23,  8, 14,  8, 20, 11, 11, 20, 20, 23,  8, 20, 20, 20, 11, 14,  8, 11, 11, 11, 20, 11,  8, 11, 11, 23,  8,  8,  8, 11, 14, 11,  8,  8, 23, 23,  0,  0,  0,  0,  0,  0,  0,  0,  0,  0,  0,  0,  0,  0,  0,  0,  0,  0,  0,  0,  0,  0,  0,  0,  0,  0,  0,  0,  0,  0,  0,  0,  0,  0,  0,  0,  0,  0,  0,  0,
        | 20, 14,  8, 20, 23,  8, 14,  8, 20, 11, 11, 20, 20, 23,  8, 20, 20, 20, 11, 14,  8, 11, 11, 11, 20, 11,  8, 11, 11, 23,  8,  8,  8, 11, 14, 11,  8,  8, 23, 23,  0,  0,  0,  0,  0,  0,  0,  0,  0,  0,  0,  0,  0,  0,  0,  0,  0,  0,  0,  0,  0,  0,  0,  0,  0,  0,  0,  0,  0,  0,  0,  0,  0,  0,  0,  0,  0,  0,  0,  0,
        | 20, 14,  8, 20, 23,  8, 14,  8, 20, 11, 11, 20, 20, 23,  8, 20, 20, 20, 11, 14,  8, 11, 11, 11, 20, 11,  8, 11, 11, 23,  8,  8,  8, 11, 14, 11,  8,  8, 23, 23,  0,  0,  0,  0,  0,  0,  0,  0,  0,  0,  0,  0,  0,  0,  0,  0,  0,  0,  0,  0,  0,  0,  0,  0,  0,  0,  0,  0,  0,  0,  0,  0,  0,  0,  0,  0,  0,  0,  0,  0,
        | 20, 14,  8, 20, 23,  8, 14,  8, 20, 11, 11, 20, 20, 23,  8, 20, 20, 20, 11, 14,  8, 11, 11, 11, 20, 11,  8, 11, 11, 23,  8,  8,  8, 11, 14, 11,  8,  8, 23, 23,  0,  0,  0,  0,  0,  0,  0,  0,  0,  0,  0,  0,  0,  0,  0,  0,  0,  0,  0,  0,  0,  0,  0,  0,  0,  0,  0,  0,  0,  0,  0,  0,  0,  0,  0,  0,  0,  0,  0,  0,
        | 20, 14,  8, 20, 23,  8, 14,  8, 20, 11, 11, 20, 20, 23,  8, 20, 20, 20, 11, 14,  8, 11, 11, 11, 20, 11,  8, 11, 11, 23,  8,  8,  8, 11, 14, 11,  8,  8, 23, 23,  0,  0,  0,  0,  0,  0,  0,  0,  0,  0,  0,  0,  0,  0,  0,  0,  0,  0,  0,  0,  0,  0,  0,  0,  0,  0,  0,  0,  0,  0,  0,  0,  0,  0,  0,  0,  0,  0,  0,  0,
        | 20, 14,  8, 20, 23,  8, 14,  8, 20, 11, 11, 20, 20, 23,  8, 20, 20, 20, 11, 14,  8, 11, 11, 11, 20, 11,  8, 11, 11, 23,  8,  8,  8, 11, 14, 11,  8,  8, 23, 23,  0,  0,  0,  0,  0,  0,  0,  0,  0,  0,  0,  0,  0,  0,  0,  0,  0,  0,  0,  0,  0,  0,  0,  0,  0,  0,  0,  0,  0,  0,  0,  0,  0,  0,  0,  0,  0,  0,  0,  0,
        | 20, 14,  8, 20, 23,  8, 14,  8, 20, 11, 11, 20, 20, 23,  8, 20, 20, 20, 11, 14,  8, 11, 11, 11, 20, 11,  8, 11, 11, 23,  8,  8,  8, 11, 14, 11,  8,  8, 23, 23,  0,  0,  0,  0,  0,  0,  0,  0,  0,  0,  0,  0,  0,  0,  0,  0,  0,  0,  0,  0,  0,  0,  0,  0,  0,  0,  0,  0,  0,  0,  0,  0,  0,  0,  0,  0,  0,  0,  0,  0,
        | 20, 14,  8, 20, 23,  8, 14,  8, 20, 11, 11, 20, 20, 23,  8, 20, 20, 20, 11, 14,  8, 11, 11, 11, 20, 11,  8, 11, 11, 23,  8,  8,  8, 11, 14, 11,  8,  8, 23, 23,  0,  0,  0,  0,  0,  0,  0,  0,  0,  0,  0,  0,  0,  0,  0,  0,  0,  0,  0,  0,  0,  0,  0,  0,  0,  0,  0,  0,  0,  0,  0,  0,  0,  0,  0,  0,  0,  0,  0,  0,
        | 20, 14,  8, 20, 23,  8, 14,  8, 20, 11, 11, 20, 20, 23,  8, 20, 20, 20, 11, 14,  8, 11, 11, 11, 20, 11,  8, 11, 11, 23,  8,  8,  8, 11, 14, 11,  8,  8, 23, 23,  0,  0,  0,  0,  0,  0,  0,  0,  0,  0,  0,  0,  0,  0,  0,  0,  0,  0,  0,  0,  0,  0,  0,  0,  0,  0,  0,  0,  0,  0,  0,  0,  0,  0,  0,  0,  0,  0,  0,  0,
        | 20, 14,  8, 20, 23,  8, 14,  8, 20, 11, 11, 20, 20, 23,  8, 20, 20, 20, 11, 14,  8, 11, 11, 11, 20, 11,  8, 11, 11, 23,  8,  8,  8, 11, 14, 11,  8,  8, 23, 23,  0,  0,  0,  0,  0,  0,  0,  0,  0,  0,  0,  0,  0,  0,  0,  0,  0,  0,  0,  0,  0,  0,  0,  0,  0,  0,  0,  0,  0,  0,  0,  0,  0,  0,  0,  0,  0,  0,  0,  0,
        | 20, 14,  8, 20, 23,  8, 14,  8, 20, 11, 11, 20, 20, 23,  8, 20, 20, 20, 11, 14,  8, 11, 11, 11, 20, 11,  8, 11, 11, 23,  8,  8,  8, 11, 14, 11,  8,  8, 23, 23,  0,  0,  0,  0,  0,  0,  0,  0,  0,  0,  0,  0,  0,  0,  0,  0,  0,  0,  0,  0,  0,  0,  0,  0,  0,  0,  0,  0,  0,  0,  0,  0,  0,  0,  0,  0,  0,  0,  0,  0,
        | 20, 14,  8, 20, 23,  8, 14,  8, 20, 11, 11, 20, 20, 23,  8, 20, 20, 20, 11, 14,  8, 11, 11, 11, 20, 11,  8, 11, 11, 23,  8,  8,  8, 11, 14, 11,  8,  8, 23, 23,  0,  0,  0,  0,  0,  0,  0,  0,  0,  0,  0,  0,  0,  0,  0,  0,  0,  0,  0,  0,  0,  0,  0,  0,  0,  0,  0,  0,  0,  0,  0,  0,  0,  0,  0,  0,  0,  0,  0,  0,
        | 20, 14,  8, 20, 23,  8, 14,  8, 20, 11, 11, 20, 20, 23,  8, 20, 20, 20, 11, 14,  8, 11, 11, 11, 20, 11,  8, 11, 11, 23,  8,  8,  8, 11, 14, 11,  8,  8, 23, 23,  0,  0,  0,  0,  0,  0,  0,  0,  0,  0,  0,  0,  0,  0,  0,  0,  0,  0,  0,  0,  0,  0,  0,  0,  0,  0,  0,  0,  0,  0,  0,  0,  0,  0,  0,  0,  0,  0,  0,  0,
        | 20, 14,  8, 20, 23,  8, 14,  8, 20, 11, 11, 20, 20, 23,  8, 20, 20, 20, 11, 14,  8, 11, 11, 11, 20, 11,  8, 11, 11, 23,  8,  8,  8, 11, 14, 11,  8,  8, 23, 23,  0,  0,  0,  0,  0,  0,  0,  0,  0,  0,  0,  0,  0,  0,  0,  0,  0,  0,  0,  0,  0,  0,  0,  0,  0,  0,  0,  0,  0,  0,  0,  0,  0,  0,  0,  0,  0,  0,  0,  0,
        | 20, 14,  8, 20, 23,  8, 14,  8, 20, 11, 11, 20, 20, 23,  8, 20, 20, 20, 11, 14,  8, 11, 11, 11, 20, 11,  8, 11, 11, 23,  8,  8,  8, 11, 14, 11,  8,  8, 23, 23,  0,  0,  0,  0,  0,  0,  0,  0,  0,  0,  0,  0,  0,  0,  0,  0,  0,  0,  0,  0,  0,  0,  0,  0,  0,  0,  0,  0,  0,  0,  0,  0,  0,  0,  0,  0,  0,  0,  0,  0,
        | 20, 14,  8, 20, 23,  8, 14,  8, 20, 11, 11, 20, 20, 23,  8, 20, 20, 20, 11, 14,  8, 11, 11, 11, 20, 11,  8, 11, 11, 23,  8,  8,  8, 11, 14, 11,  8,  8, 23, 23,  0,  0,  0,  0,  0,  0,  0,  0,  0,  0,  0,  0,  0,  0,  0,  0,  0,  0,  0,  0,  0,  0,  0,  0,  0,  0,  0,  0,  0,  0,  0,  0,  0,  0,  0,  0,  0,  0,  0,  0,
        | 20, 14,  8, 20, 23,  8, 14,  8, 20, 11, 11, 20, 20, 23,  8, 20, 20, 20, 11, 14,  8, 11, 11, 11, 20, 11,  8, 11, 11, 23,  8,  8,  8, 11, 14, 11,  8,  8, 23, 23,  0,  0,  0,  0,  0,  0,  0,  0,  0,  0,  0,  0,  0,  0,  0,  0,  0,  0,  0,  0,  0,  0,  0,  0,  0,  0,  0,  0,  0,  0,  0,  0,  0,  0,  0,  0,  0,  0,  0,  0,
        | 20, 14,  8, 20, 23,  8, 14,  8, 20, 11, 11, 20, 20, 23,  8, 20, 20, 20, 11, 14,  8, 11, 11, 11, 20, 11,  8, 11, 11, 23,  8,  8,  8, 11, 14, 11,  8,  8, 23, 23,  0,  0,  0,  0,  0,  0,  0,  0,  0,  0,  0,  0,  0,  0,  0,  0,  0,  0,  0,  0,  0,  0,  0,  0,  0,  0,  0,  0,  0,  0,  0,  0,  0,  0,  0,  0,  0,  0,  0,  0,
        | 20, 14,  8, 20, 23,  8, 14,  8, 20, 11, 11, 20, 20, 23,  8, 20, 20, 20, 11, 14,  8, 11, 11, 11, 20, 11,  8, 11, 11, 23,  8,  8,  8, 11, 14, 11,  8,  8, 23, 23,  0,  0,  0,  0,  0,  0,  0,  0,  0,  0,  0,  0,  0,  0,  0,  0,  0,  0,  0,  0,  0,  0,  0,  0,  0,  0,  0,  0,  0,  0,  0,  0,  0,  0,  0,  0,  0,  0,  0,  0,
        | 20, 14,  8, 20, 23,  8, 14,  8, 20, 11, 11, 20, 20, 23,  8, 20, 20, 20, 11, 14,  8, 11, 11, 11, 20, 11,  8, 11, 11, 23,  8,  8,  8, 11, 14, 11,  8,  8, 23, 23,  0,  0,  0,  0,  0,  0,  0,  0,  0,  0,  0,  0,  0,  0,  0,  0,  0,  0,  0,  0,  0,  0,  0,  0,  0,  0,  0,  0,  0,  0,  0,  0,  0,  0,  0,  0,  0,  0,  0,  0,
        | 20, 14,  8, 20, 23,  8, 14,  8, 20, 11, 11, 20, 20, 23,  8, 20, 20, 20, 11, 14,  8, 11, 11, 11, 20, 11,  8, 11, 11, 23,  8,  8,  8, 11, 14, 11,  8,  8, 23, 23,  0,  0,  0,  0,  0,  0,  0,  0,  0,  0,  0,  0,  0,  0,  0,  0,  0,  0,  0,  0,  0,  0,  0,  0,  0,  0,  0,  0,  0,  0,  0,  0,  0,  0,  0,  0,  0,  0,  0,  0,
        | 20, 14,  8, 20, 23,  8, 14,  8, 20, 11, 11, 20, 20, 23,  8, 20, 20, 20, 11, 14,  8, 11, 11, 11, 20, 11,  8, 11, 11, 23,  8,  8,  8, 11, 14, 11,  8,  8, 23, 23,  0,  0,  0,  0,  0,  0,  0,  0,  0,  0,  0,  0,  0,  0,  0,  0,  0,  0,  0,  0,  0,  0,  0,  0,  0,  0,  0,  0,  0,  0,  0,  0,  0,  0,  0,  0,  0,  0,  0,  0,
        | 20, 14,  8, 20, 23,  8, 14,  8, 20, 11, 11, 20, 20, 23,  8, 20, 20, 20, 11, 14,  8, 11, 11, 11, 20, 11,  8, 11, 11, 23,  8,  8,  8, 11, 14, 11,  8,  8, 23, 23,  0,  0,  0,  0,  0,  0,  0,  0,  0,  0,  0,  0,  0,  0,  0,  0,  0,  0,  0,  0,  0,  0,  0,  0,  0,  0,  0,  0,  0,  0,  0,  0,  0,  0,  0,  0,  0,  0,  0,  0,
        | 20, 14,  8, 20, 23,  8, 14,  8, 20, 11, 11, 20, 20, 23,  8, 20, 20, 20, 11, 14,  8, 11, 11, 11, 20, 11,  8, 11, 11, 23,  8,  8,  8, 11, 14, 11,  8,  8, 23, 23,  0,  0,  0,  0,  0,  0,  0,  0,  0,  0,  0,  0,  0,  0,  0,  0,  0,  0,  0,  0,  0,  0,  0,  0,  0,  0,  0,  0,  0,  0,  0,  0,  0,  0,  0,  0,  0,  0,  0,  0,
        | 20, 14,  8, 20, 23,  8, 14,  8, 20, 11, 11, 20, 20, 23,  8, 20, 20, 20, 11, 14,  8, 11, 11, 11, 20, 11,  8, 11, 11, 23,  8,  8,  8, 11, 14, 11,  8,  8, 23, 23,  0,  0,  0,  0,  0,  0,  0,  0,  0,  0,  0,  0,  0,  0,  0,  0,  0,  0,  0,  0,  0,  0,  0,  0,  0,  0,  0,  0,  0,  0,  0,  0,  0,  0,  0,  0,  0,  0,  0,  0,
        | 20, 14,  8, 20, 23,  8, 14,  8, 20, 11, 11, 20, 20, 23,  8, 20, 20, 20, 11, 14,  8, 11, 11, 11, 20, 11,  8, 11, 11, 23,  8,  8,  8, 11, 14, 11,  8,  8, 23, 23,  0,  0,  0,  0,  0,  0,  0,  0,  0,  0,  0,  0,  0,  0,  0,  0,  0,  0,  0,  0,  0,  0,  0,  0,  0,  0,  0,  0,  0,  0,  0,  0,  0,  0,  0,  0,  0,  0,  0,  0,
        | 20, 14,  8, 20, 23,  8, 14,  8, 20, 11, 11, 20, 20, 23,  8, 20, 20, 20, 11, 14,  8, 11, 11, 11, 20, 11,  8, 11, 11, 23,  8,  8,  8, 11, 14, 11,  8,  8, 23, 23,  0,  0,  0,  0,  0,  0,  0,  0,  0,  0,  0,  0,  0,  0,  0,  0,  0,  0,  0,  0,  0,  0,  0,  0,  0,  0,  0,  0,  0,  0,  0,  0,  0,  0,  0,  0,  0,  0,  0,  0,
        | 20, 14,  8, 20, 23,  8, 14,  8, 20, 11, 11, 20, 20, 23,  8, 20, 20, 20, 11, 14,  8, 11, 11, 11, 20, 11,  8, 11, 11, 23,  8,  8,  8, 11, 14, 11,  8,  8, 23, 23,  0,  0,  0,  0,  0,  0,  0,  0,  0,  0,  0,  0,  0,  0,  0,  0,  0,  0,  0,  0,  0,  0,  0,  0,  0,  0,  0,  0,  0,  0,  0,  0,  0,  0,  0,  0,  0,  0,  0,  0,
        | 20, 14,  8, 20, 23,  8, 14,  8, 20, 11, 11, 20, 20, 23,  8, 20, 20, 20, 11, 14,  8, 11, 11, 11, 20, 11,  8, 11, 11, 23,  8,  8,  8, 11, 14, 11,  8,  8, 23, 23,  0,  0,  0,  0,  0,  0,  0,  0,  0,  0,  0,  0,  0,  0,  0,  0,  0,  0,  0,  0,  0,  0,  0,  0,  0,  0,  0,  0,  0,  0,  0,  0,  0,  0,  0,  0,  0,  0,  0,  0|];
l =     [  2,  4,  5,  2,  1,  5,  4,  5,  2,  3,  3,  2,  2,  1,  5,  2,  2,  2,  3,  4,  5,  3,  3,  3,  2,  3,  5,  3,  3,  1,  5,  5,  5,  3,  4,  3,  5,  5,  1,  1];
a =     [ 43, 33, 19, 20, 23, 27, 29, 58, 20, 17, 30, 44, 20, 23, 48, 20, 48, 41, 20, 17, 74, 63, 39, 56, 70, 51, 63, 80, 63, 65, 50, 73, 53, 68, 78, 62, 77, 69, 62, 49];
b =     [ 69, 69, 35, 58, 59, 59, 68, 80, 38, 32, 50, 81, 43, 45, 74, 42, 71, 77, 54, 53,121,118,100, 96,115, 98,118,120,114,111,100,113,121,121,121,119,125,122,103,103];
s =     [ 14, 12, 11, 10, 14, 15, 14, 13, 17, 16, 11, 12, 16, 13, 10, 16, 12, 11, 10, 14, 14, 12, 11, 10, 14, 15, 14, 13, 17, 16, 11, 12, 16, 13, 10, 16, 12, 11, 10, 14];
q =     [  4,  3,  1,  1,  1,  2,  1,  4,  3,  3,  3,  4,  1,  3,  2,  4,  2,  1,  3,  2, -4, -3, -1, -1, -1, -2, -1, -4, -3, -3, -3, -4, -1, -3, -2, -4, -2, -1, -3, -2];
